SDVRP instances/custom_instances/p01_26_split0.vrp
NAME:p01_26_split
BEST_KNOWN: 0
COMMENT: 0
DIMENSION: 198
CAPACITY: 160
EDGE_WEIGHT_FORMAT: FUNCTION
EDGE_WEIGHT_TYPE: EXACT_2D
NODE_COORD_SECTION
1 0.00000 0.00000
2 -2 26
3 -2 26
4 28 -34
5 28 -34
6 28 -34
7 28 -34
8 18 11
9 18 11
10 18 11
11 -48 7
12 -48 7
13 -48 7
14 -39 37
15 -39 37
16 -39 37
17 -24 -34
18 -24 -34
19 -24 -34
20 -24 -34
21 -24 -34
22 -9 -5
23 -9 -5
24 -9 -5
25 12 -37
26 12 -37
27 12 -37
28 12 -37
29 12 -37
30 12 -37
31 12 -37
32 28 -42
33 -31 -32
34 -31 -32
35 -31 -32
36 1 22
37 1 22
38 1 22
39 1 22
40 -16 6
41 -16 6
42 -16 6
43 -16 6
44 29 -23
45 29 -23
46 29 -23
47 29 -23
48 -10 18
49 -10 18
50 -10 18
51 39 1
52 39 1
53 39 1
54 -5 -46
55 -5 -46
56 -12 18
57 -1 -38
58 -1 -38
59 -1 -38
60 -1 -38
61 -1 -38
62 -1 -38
63 40 -43
64 40 -43
65 9 21
66 9 21
67 9 21
68 9 21
69 9 21
70 -45 -35
71 -45 -35
72 -45 -35
73 -11 -1
74 -11 -1
75 -11 -1
76 -35 46
77 -35 46
78 -35 46
79 -35 46
80 -35 46
81 -35 46
82 -35 46
83 -42 -36
84 -42 -36
85 -42 -36
86 26 38
87 26 38
88 9 41
89 9 41
90 9 41
91 9 41
92 9 41
93 9 41
94 -29 18
95 -29 18
96 -29 18
97 -29 18
98 1 -47
99 1 -47
100 1 -47
101 1 -47
102 1 -47
103 1 -47
104 36 -47
105 36 -47
106 36 -47
107 36 -47
108 36 -47
109 -21 -36
110 -21 -36
111 -21 -36
112 -21 -36
113 -21 -36
114 -19 18
115 -19 18
116 28 -13
117 28 -13
118 28 -13
119 48 15
120 48 15
121 48 15
122 48 15
123 48 15
124 10 -12
125 10 -12
126 10 -12
127 10 -12
128 10 -12
129 24 -11
130 24 -11
131 24 -11
132 24 -11
133 -33 47
134 -33 47
135 -33 47
136 -33 47
137 -33 47
138 7 -21
139 7 -21
140 7 -21
141 7 -21
142 43 -37
143 43 -37
144 43 -37
145 43 -37
146 43 -37
147 1 2
148 1 2
149 1 2
150 1 2
151 1 2
152 24 5
153 24 5
154 24 5
155 -4 33
156 -4 33
157 -4 33
158 -4 33
159 -4 33
160 -30 10
161 -30 10
162 -30 10
163 -16 -40
164 -16 -40
165 -16 -40
166 37 -47
167 37 -47
168 37 -47
169 37 -47
170 37 -47
171 18 -38
172 18 -38
173 18 -38
174 18 -38
175 18 -38
176 -15 -50
177 -15 -50
178 -15 -50
179 -26 34
180 -26 34
181 -26 34
182 -26 34
183 -27 25
184 -27 25
185 -27 25
186 -27 25
187 -27 25
188 -27 25
189 -27 25
190 45 -31
191 45 -31
192 45 -31
193 45 -31
194 45 -31
195 37 -24
196 37 -24
197 37 -24
198 37 -24
DEMAND_SECTION
1 0
2 32
3 16
4 32
5 16
6 2
7 2
8 32
9 2
10 1
11 32
12 2
13 2
14 16
15 8
16 1
17 32
18 8
19 2
20 2
21 2
22 32
23 32
24 2
25 32
26 32
27 8
28 2
29 2
30 2
31 1
32 32
33 32
34 16
35 1
36 16
37 2
38 2
39 1
40 16
41 2
42 2
43 1
44 32
45 16
46 8
47 1
48 16
49 8
50 1
51 32
52 2
53 1
54 32
55 8
56 32
57 32
58 16
59 8
60 2
61 2
62 1
63 32
64 2
65 32
66 16
67 8
68 2
69 2
70 32
71 16
72 2
73 16
74 8
75 2
76 32
77 32
78 8
79 2
80 2
81 2
82 1
83 16
84 2
85 2
86 32
87 2
88 32
89 16
90 8
91 2
92 2
93 1
94 32
95 32
96 8
97 2
98 32
99 32
100 8
101 2
102 2
103 1
104 32
105 16
106 8
107 2
108 1
109 32
110 16
111 2
112 2
113 1
114 32
115 32
116 32
117 32
118 16
119 32
120 32
121 8
122 2
123 2
124 32
125 8
126 2
127 2
128 1
129 32
130 2
131 2
132 2
133 32
134 32
135 8
136 2
137 2
138 32
139 8
140 2
141 1
142 16
143 8
144 2
145 2
146 1
147 16
148 8
149 2
150 2
151 1
152 16
153 8
154 2
155 32
156 32
157 8
158 2
159 1
160 16
161 2
162 2
163 32
164 32
165 8
166 32
167 16
168 2
169 2
170 2
171 32
172 32
173 2
174 2
175 1
176 32
177 16
178 1
179 16
180 8
181 2
182 1
183 32
184 16
185 8
186 2
187 2
188 2
189 1
190 16
191 8
192 2
193 2
194 2
195 32
196 8
197 2
198 2
DEPOT_SECTION
1
-1
EOF