SDVRP instances/custom_instances/p01_26_split0.sol
197 -2 1 158 155 154 156 157 36 38 37 35 146 -5 6 4 3 62 63 145 143 142 144 141 191 192 189 193 190 -22 16 19 17 18 20 110 111 162 164 163 -23 21 70 71 69 83 84 82 32 33 34 -31 103 105 104 107 106 167 169 166 168 165 -40 39 42 41 94 93 95 96 182 186 184 187 183 185 188 -49 48 47 180 181 179 178 14 15 13 10 11 12 159 160 161 74 73 72 -51 52 50 121 122 119 118 120 7 9 8 149 147 148 150 -55 114 113 -59 58 54 53 175 176 177 108 109 112 -61 56 60 57 97 100 101 98 99 102 137 -67 65 68 64 66 86 85 92 87 91 90 89 88 -78 75 79 80 76 81 77 134 136 132 133 135 -123 127 124 126 125 46 43 45 44 194 196 195 197 -128 131 129 130 116 117 115 151 153 152 -139 140 138 30 28 24 29 26 25 27 173 170 171 174 172 0 





OBJ=
1592.802
BEST_KNOWN=
0.000